72
0 69 4 38 30 42 68 37 59 2 
7 19 14 51 50 8 57 9 34 52 
71 60 28 62 1 40 23 66 36 25 
44 29 21 13 26 41 17 56 10 6 
49 33 48 3 43 18 58 31 70 15 
24 12 11 20 53 46 55 47 61 65 
27 39 45 64 35 22 67 16 32 5 
54 63 
